c 0.0022432804107666016 (encode time in sec)
p cnf 110 152
1 2 3 11 0
1 2 -3 6 0
1 -2 3 7 0
1 -2 -3 5 0
-1 2 3 4 0
-1 2 -3 8 0
-1 -2 3 9 0
-1 -2 -3 10 0
12 1 2 3 13 0
12 1 2 -3 15 0
12 1 -2 3 17 0
12 1 -2 -3 14 0
12 -1 2 3 16 0
12 -1 2 -3 18 0
12 -1 -2 3 19 0
12 -1 -2 -3 20 0
-12 1 2 3 21 0
-12 1 2 -3 22 0
-12 1 -2 3 23 0
-12 1 -2 -3 26 0
-12 -1 2 3 28 0
-12 -1 2 -3 24 0
-12 -1 -2 3 25 0
-12 -1 -2 -3 27 0
29 30 31 12 1 2 3 70 0
29 30 31 12 1 2 -3 44 0
29 30 31 12 1 -2 3 92 0
29 30 31 12 1 -2 -3 63 0
29 30 31 12 -1 2 3 91 0
29 30 31 12 -1 2 -3 32 0
29 30 31 12 -1 -2 3 104 0
29 30 31 12 -1 -2 -3 71 0
29 30 31 -12 1 2 3 98 0
29 30 31 -12 1 2 -3 86 0
29 30 31 -12 1 -2 3 80 0
29 30 31 -12 1 -2 -3 72 0
29 30 31 -12 -1 2 3 81 0
29 30 31 -12 -1 2 -3 49 0
29 30 31 -12 -1 -2 3 48 0
29 30 31 -12 -1 -2 -3 109 0
29 30 -31 12 1 2 3 52 0
29 30 -31 12 1 2 -3 33 0
29 30 -31 12 1 -2 3 34 0
29 30 -31 12 1 -2 -3 73 0
29 30 -31 12 -1 2 3 35 0
29 30 -31 12 -1 2 -3 39 0
29 30 -31 12 -1 -2 3 74 0
29 30 -31 12 -1 -2 -3 37 0
29 30 -31 -12 1 2 3 58 0
29 30 -31 -12 1 2 -3 108 0
29 30 -31 -12 1 -2 3 77 0
29 30 -31 -12 1 -2 -3 55 0
29 30 -31 -12 -1 2 3 93 0
29 30 -31 -12 -1 2 -3 79 0
29 30 -31 -12 -1 -2 3 57 0
29 30 -31 -12 -1 -2 -3 109 0
29 -30 31 12 1 2 3 52 0
29 -30 31 12 1 2 -3 36 0
29 -30 31 12 1 -2 3 96 0
29 -30 31 12 1 -2 -3 38 0
29 -30 31 12 -1 2 3 76 0
29 -30 31 12 -1 2 -3 75 0
29 -30 31 12 -1 -2 3 78 0
29 -30 31 12 -1 -2 -3 71 0
29 -30 31 -12 1 2 3 58 0
29 -30 31 -12 1 2 -3 59 0
29 -30 31 -12 1 -2 3 56 0
29 -30 31 -12 1 -2 -3 41 0
29 -30 31 -12 -1 2 3 94 0
29 -30 31 -12 -1 2 -3 88 0
29 -30 31 -12 -1 -2 3 57 0
29 -30 31 -12 -1 -2 -3 105 0
29 -30 -31 12 1 2 3 52 0
29 -30 -31 12 1 2 -3 84 0
29 -30 -31 12 1 -2 3 87 0
29 -30 -31 12 1 -2 -3 62 0
29 -30 -31 12 -1 2 3 95 0
29 -30 -31 12 -1 2 -3 102 0
29 -30 -31 12 -1 -2 3 110 0
29 -30 -31 12 -1 -2 -3 53 0
29 -30 -31 -12 1 2 3 65 0
29 -30 -31 -12 1 2 -3 66 0
29 -30 -31 -12 1 -2 3 45 0
29 -30 -31 -12 1 -2 -3 40 0
29 -30 -31 -12 -1 2 3 99 0
29 -30 -31 -12 -1 2 -3 54 0
29 -30 -31 -12 -1 -2 3 83 0
29 -30 -31 -12 -1 -2 -3 109 0
-29 30 31 12 1 2 3 52 0
-29 30 31 12 1 2 -3 84 0
-29 30 31 12 1 -2 3 85 0
-29 30 31 12 1 -2 -3 43 0
-29 30 31 12 -1 2 3 61 0
-29 30 31 12 -1 2 -3 42 0
-29 30 31 12 -1 -2 3 50 0
-29 30 31 12 -1 -2 -3 53 0
-29 30 31 -12 1 2 3 98 0
-29 30 31 -12 1 2 -3 90 0
-29 30 31 -12 1 -2 3 51 0
-29 30 31 -12 1 -2 -3 67 0
-29 30 31 -12 -1 2 3 68 0
-29 30 31 -12 -1 2 -3 46 0
-29 30 31 -12 -1 -2 3 83 0
-29 30 31 -12 -1 -2 -3 109 0
-29 30 -31 12 1 2 3 52 0
-29 30 -31 12 1 2 -3 84 0
-29 30 -31 12 1 -2 3 85 0
-29 30 -31 12 1 -2 -3 43 0
-29 30 -31 12 -1 2 3 61 0
-29 30 -31 12 -1 2 -3 42 0
-29 30 -31 12 -1 -2 3 50 0
-29 30 -31 12 -1 -2 -3 53 0
-29 30 -31 -12 1 2 3 97 0
-29 30 -31 -12 1 2 -3 90 0
-29 30 -31 -12 1 -2 3 69 0
-29 30 -31 -12 1 -2 -3 106 0
-29 30 -31 -12 -1 2 3 47 0
-29 30 -31 -12 -1 2 -3 82 0
-29 30 -31 -12 -1 -2 3 48 0
-29 30 -31 -12 -1 -2 -3 109 0
-29 -30 31 12 1 2 3 52 0
-29 -30 31 12 1 2 -3 84 0
-29 -30 31 12 1 -2 3 85 0
-29 -30 31 12 1 -2 -3 43 0
-29 -30 31 12 -1 2 3 61 0
-29 -30 31 12 -1 2 -3 42 0
-29 -30 31 12 -1 -2 3 50 0
-29 -30 31 12 -1 -2 -3 53 0
-29 -30 31 -12 1 2 3 97 0
-29 -30 31 -12 1 2 -3 90 0
-29 -30 31 -12 1 -2 3 100 0
-29 -30 31 -12 1 -2 -3 106 0
-29 -30 31 -12 -1 2 3 103 0
-29 -30 31 -12 -1 2 -3 49 0
-29 -30 31 -12 -1 -2 3 48 0
-29 -30 31 -12 -1 -2 -3 109 0
-29 -30 -31 12 1 2 3 52 0
-29 -30 -31 12 1 2 -3 84 0
-29 -30 -31 12 1 -2 3 85 0
-29 -30 -31 12 1 -2 -3 43 0
-29 -30 -31 12 -1 2 3 61 0
-29 -30 -31 12 -1 2 -3 42 0
-29 -30 -31 12 -1 -2 3 50 0
-29 -30 -31 12 -1 -2 -3 53 0
-29 -30 -31 -12 1 2 3 97 0
-29 -30 -31 -12 1 2 -3 101 0
-29 -30 -31 -12 1 -2 3 64 0
-29 -30 -31 -12 1 -2 -3 107 0
-29 -30 -31 -12 -1 2 3 89 0
-29 -30 -31 -12 -1 2 -3 60 0
-29 -30 -31 -12 -1 -2 3 48 0
-29 -30 -31 -12 -1 -2 -3 109 0
